results_rootrelaxation/bin012_090_035.srr.sol
solution status: optimal solution found
objective value:                                 33.5
_var59_                            0.0833333333333328 	(obj:5)
_var518_                           0.0499999999999998 	(obj:3)
_var599_                            0.016666666666668 	(obj:4)
_var608_                                         0.25 	(obj:4)
_var679_                            0.116666666666667 	(obj:4)
_var698_                            0.233333333333333 	(obj:4)
_var703_                                         0.15 	(obj:3)
_var708_                            0.466666666666666 	(obj:2)
_var711_                            0.499999999999999 	(obj:2)
_var713_                            0.100000000000001 	(obj:3)
_var720_                            0.166666666666666 	(obj:4)
_var724_                           0.0166666666666641 	(obj:3)
_var728_                            0.100000000000002 	(obj:4)
_var729_                            0.100000000000002 	(obj:4)
_var737_                           0.0666666666666662 	(obj:4)
_var743_                            0.283333333333335 	(obj:1)
_var750_                            0.233333333333333 	(obj:4)
_var754_                            0.216666666666667 	(obj:2)
_var762_                             0.28333333333333 	(obj:4)
_var770_                           0.0833333333333329 	(obj:3)
_var775_                            0.149999999999999 	(obj:5)
_var778_                            0.383333333333332 	(obj:4)
_var780_                            0.166666666666668 	(obj:4)
_var789_                           0.0499999999999986 	(obj:4)
_var794_                            0.233333333333332 	(obj:3)
_var807_                           0.0166666666666659 	(obj:3)
_var809_                            0.283333333333333 	(obj:2)
_var810_                            0.500000000000001 	(obj:2)
_var812_                            0.516666666666667 	(obj:3)
_var814_                           0.0166666666666655 	(obj:2)
_var815_                            0.333333333333334 	(obj:3)
_var817_                           0.0166666666666669 	(obj:4)
_var823_                            0.500000000000002 	(obj:2)
_var824_                            0.316666666666668 	(obj:2)
_var827_                            0.100000000000001 	(obj:5)
_var828_                            0.383333333333333 	(obj:4)
_var832_                            0.116666666666667 	(obj:4)
_var834_                            0.116666666666665 	(obj:3)
_var835_                                         0.25 	(obj:2)
_var836_                                          0.5 	(obj:3)
_var841_                                          0.2 	(obj:1)
_var843_                            0.200000000000002 	(obj:4)
_var844_                            0.333333333333333 	(obj:3)
_var845_                           0.0666666666666651 	(obj:4)
_var847_                           0.0166666666666679 	(obj:4)
_var848_                            0.433333333333333 	(obj:3)
_var850_                           0.0333333333333337 	(obj:2)
_var854_                            0.133333333333334 	(obj:4)
_var855_                           0.0333333333333352 	(obj:3)
_var857_                            0.266666666666668 	(obj:3)
_var858_                           0.0999999999999979 	(obj:4)
_var860_                                         0.25 	(obj:4)
_var861_                            0.100000000000002 	(obj:4)
_var862_                            0.266666666666667 	(obj:4)
_var863_                            0.016666666666665 	(obj:2)
_var873_                           0.0833333333333336 	(obj:4)
